c WARNING: for repeatability, setting FPU to use double precision
d VARIABLES            141558       
d CONSTRAINTS          515412       
c ============================[ Problem Statistics ]=============================
c |                                                                             |
c |  Number of variables:        141558                                         |
c |  Number of clauses:          515412                                         |
c |  Parse time:                   0.08 s                                       |
c |                                                                             |
c ============================[ Search Statistics ]==============================
c | Conflicts |          ORIGINAL         |          LEARNT          | Progress |
c |           |    Vars  Clauses Literals |    Limit  Clauses Lit/Cl |          |
c ===============================================================================
c |       100 |  111386   437190  1097387 |   160303       98      4 | 21.314 % |
c |       250 |  111386   437190  1097387 |   176333      248      4 | 21.314 % |
c |       475 |  111386   437184  1097372 |   193966      473      5 | 21.314 % |
c |       812 |  111386   437184  1097372 |   213363      810      6 | 21.314 % |
c |      1318 |  111386   437184  1097372 |   234699     1316     36 | 21.314 % |
c |      2077 |  111386   437184  1097372 |   258169     2075     34 | 21.314 % |
c |      3216 |  111386   437184  1097372 |   283986     3214     56 | 21.314 % |
c |      4924 |  111386   437184  1097372 |   312385     4922     58 | 21.314 % |
c |      7486 |  111386   437184  1097372 |   343623     7484     65 | 21.314 % |
c |     11330 |  111386   437184  1097372 |   377986    11328     73 | 21.314 % |
c |     17096 |  111386   437184  1097372 |   415784    17094     93 | 21.314 % |
c |     25745 |  111386   437184  1097372 |   457363    25743    108 | 21.314 % |
c |     38719 |  111386   437184  1097372 |   503099    38717    117 | 21.314 % |
c |     58180 |  111386   437184  1097372 |   553409    58178    115 | 21.314 % |
c |     87372 |  111386   437184  1097372 |   608750    87370    127 | 21.314 % |
c |    131161 |  111386   437184  1097372 |   669625   131159    136 | 21.314 % |
c |    196845 |  111386   437184  1097372 |   736587   196843    139 | 21.314 % |
c |    295371 |  111386   437184  1097372 |   810246   295369    157 | 21.314 % |
c |    443160 |  111386   437184  1097372 |   891271   443158    152 | 21.314 % |
c |    664843 |  111386   437184  1097372 |   980398   664841    148 | 21.314 % |
c |    997368 |  111386   437184  1097372 |  1078438   997366    150 | 21.314 % |
c |   1496156 |  111386   437184  1097372 |  1186282   405014    135 | 21.314 % |
c |   2244338 |  111386   437184  1097372 |  1304910  1153196    140 | 21.314 % |
c ===============================================================================
c restarts              : 4495
c conflicts             : 2612221        (1456 /sec)
c decisions             : 6601462        (0.00 % random) (3679 /sec)
c propagations          : 3014200211     (1680006 /sec)
c conflict literals     : 407065847      (45.02 % deleted)
d RESTARTS             4495
d FAILURES             2612221      
d NODES                6601462      
d BACKTRACKS           6601462      
d PROPAGATIONS         3014200211   
d NOGOODSIZE           155.83 
d MEMORY               1076.00 
d TIME                 1794.16 

s UNKNOWN
